c read Graph
c width = 183
c time = 251 ms
c width = 19
c time = 491 ms
c width = 18
c time = 649 ms
c width = 17
c time = 2639 ms
c width = 16
c time = 6787 ms
c width = 15
c time = 9579 ms
c width = 14
c time = 52257 ms
c width = 14
c time = 53433 ms
s td 174 15 196
b 1 1 2 15
b 2 2 3 15 16
b 3 12 13 27 28
b 4 3 15 16 29
b 5 12 27 28 42
b 6 155 169 170 184
b 7 168 181 182 195
b 8 155 170 184 185
b 9 168 181 194 195
b 10 175 188 189 190
b 11 162 175 177 188 190 192
b 12 177 190 191 192
b 13 162 175 176 177 190
b 14 122 124 125 133 135 137 138 140 147 149 162 175 177 188 192
b 15 122 123 124 125 133 135 137 140 147 149 162 175 188
b 16 120 122 123 124 125 133 135 140 147 149 162 175 188
b 17 110 120 122 123 124 125 133 135 140 147 162 175 188
b 18 107 110 120 122 123 125 133 135 140 147 162 175 188
b 19 94 95 107 110 120 122 123 125 133 140 147 162 175 188
b 20 69 82 84 94 95 107 110 120 125 133 140 147 162 175 188
b 21 69 81 82 84 93 94 95 107 120 133 147 162 175 188
b 22 69 80 81 82 84 93 94 107 120 133 147 162 175 188
b 23 69 70 80 81 82 84 93 107 120 133 147 162 175 188
b 24 67 69 70 80 81 82 93 107 120 133 147 162 175 188
b 25 56 67 69 70 80 82 93 107 120 133 147 162 175 188
b 26 54 55 56 67 69 80 82 93 107 120 133 147 162 175 188
b 27 54 67 68 69 82
b 28 41 54 55 56 67 80 93 107 120 133 147 162 175 188
b 29 11 26 41 54 56 67 80 93 107 120 133 147 162 175 188
b 30 11 26 40 41 54 67 80 93 107 120 133 147 162 175 188
b 31 11 26 40 53 54 67 80 93 107 120 133 147 162 175 188
b 32 11 26 39 40 53 67 80 93 107 120 133 147 162 175 188
b 33 11 26 39 52 53 67 80 93 107 120 133 147 162 175 188
b 34 11 26 39 52 65 67 80 93 107 120 133 147 162 175 188
b 35 11 26 39 52 65 78 80 93 107 120 133 147 162 175 188
b 36 11 26 39 52 65 78 92 93 107 120 133 147 162 175 188
b 37 11 25 26 39 52 65 78 92 107 120 133 147 162 175 188
b 38 11 25 38 39 52 65 78 92 107 120 133 147 162 175 188
b 39 11 24 25 38 52 65 78 92 107 120 133 147 162 175 188
b 40 11 24 37 38 52 65 78 92 107 120 133 147 162 175 188
b 41 10 11 24 37 52 65 78 92 107 120 133 147 162 175 188
b 42 9 10 24 37 52 65 78 92 107 120 133 147 162 175 188
b 43 9 24 37 50 52 65 78 92 107 120 133 147 162 175 188
b 44 9 22 24 37 50 65 78 92 107 120 133 147 162 175 188
b 45 9 22 37 50 63 65 78 92 107 120 133 147 162 175 188
b 46 9 22 37 50 63 77 78 92 107 120 133 147 162 175 188
b 47 9 22 35 37 50 63 77 92 107 120 133 147 162 175 188
b 48 22 35 36 37 50
b 49 9 22 35 50 63 77 92 107 120 133 147 160 162 175 188
b 50 9 22 35 50 63 77 92 107 120 133 147 160 173 175 188
b 51 9 22 35 50 63 77 92 107 120 133 146 147 160 173 188
b 52 9 22 35 50 63 77 92 105 107 120 133 146 160 173 188
b 53 9 22 35 50 63 77 92 105 118 120 133 146 160 173 188
b 54 9 22 35 50 63 77 92 105 118 131 133 146 160 173 188
b 55 9 22 35 50 63 77 92 105 118 131 145 146 160 173 188
b 56 9 22 35 50 63 77 92 105 118 131 145 158 160 173 188
b 57 9 22 35 50 63 77 90 92 105 118 131 145 158 173 188
b 58 9 22 35 50 63 77 90 103 105 118 131 145 158 173 188
b 59 9 22 35 48 50 63 77 90 103 118 131 145 158 173 188
b 60 7 9 22 35 48 63 77 90 103 118 131 145 158 173 188
b 61 7 20 22 35 48 63 77 90 103 118 131 145 158 173 188
b 62 5 7 20 35 48 63 77 90 103 118 131 145 158 173 188
b 63 5 6 7 20
b 64 5 20 35 48 63 77 90 103 117 118 131 145 158 173 188
b 65 5 20 35 48 63 77 90 103 117 130 131 145 158 173 188
b 66 5 20 35 48 63 77 90 103 117 130 143 145 158 173 188
b 67 130 143 144 145 158 173 188
b 68 5 20 35 48 63 77 90 103 116 117 130 143 158 173 188
b 69 5 20 35 48 63 77 90 103 116 129 130 143 158 173 188
b 70 7 20 21 22 35
b 71 7 8 9 22
b 72 35 48 49 50 63
b 73 90 103 104 105 118
b 74 77 90 91 92 105
b 75 145 158 159 160 173
b 76 118 131 132 133 146
b 77 105 118 119 120 133
b 78 92 105 106 107 120
b 79 160 173 174 175 188
b 80 147 160 161 162 175
b 81 50 63 64 65 78
b 82 9 22 23 24 37
b 83 37 50 51 52 65
b 84 65 78 79 80 93
b 85 52 65 66 67 80
b 86 11 26 41 42 56
b 87 11 12 26 41 42
b 88 12 26 27 41 42
b 89 69 82 84 95 97 110 125 140
b 90 84 97 110 112 125 140
b 91 97 110 111 112 125
b 92 84 97 98 112
b 93 112 125 126 140
b 94 82 95 96 97 110
b 95 69 82 83 84 97
b 96 94 95 107 108 110 122 123
b 97 95 108 109 110 123
b 98 107 120 121 122 135
b 99 120 133 134 135 147 149 162
b 100 134 147 148 149 162
b 101 122 125 135 137 138 140 149 150 162 177 192
b 102 125 137 138 140 149 150 162 164 177 192
b 103 149 162 163 164 177
b 104 125 137 138 140 150 164 177 179 192
b 105 125 137 138 140 150 164 165 179 192
b 106 125 137 138 140 150 152 165 179 192
b 107 137 150 151 152 165
b 108 125 138 140 152 153 165 179 192
b 109 125 138 139 140 153
b 110 140 152 153 165 179 192 194
b 111 179 192 193 194
b 112 140 152 153 165 179 180 194
b 113 140 152 153 165 167 180 194
b 114 152 165 166 167 180
b 115 140 153 167 168 180 194
b 116 167 168 180 181 194
b 117 140 153 154 168
b 118 164 177 178 179 192
b 119 122 135 136 137 150
b 120 5 20 35 48 63 77 90 103 114 116 127 129 142
b 121 5 20 35 48 63 77 90 103 116 127 129 142 156 171 186
b 122 5 20 35 48 63 77 90 103 116 129 142 143 156 171 186
b 123 5 20 35 48 63 77 90 103 116 129 143 156 158 171 186
b 124 5 20 35 48 63 77 90 103 116 129 143 158 171 172 186
b 125 5 20 35 48 63 77 90 103 116 129 143 158 172 173 186
b 126 5 20 35 48 63 77 90 103 116 129 143 158 173 186 188
b 127 173 186 187 188
b 128 5 20 35 48 63 77 90 103 114 115 116 127 129
b 129 5 20 35 48 63 77 90 101 103 114 115 116 127
b 130 5 20 35 48 63 71 77 86 90 101 103 114 116 127
b 131 71 86 99 101 114 127
b 132 86 99 100 101 114
b 133 99 113 114 127
b 134 71 85 86 99
b 135 5 20 35 48 63 71 77 86 88 90 101 103 116
b 136 88 101 102 103 116
b 137 5 20 35 48 63 71 73 77 86 88 90 101 103
b 138 73 86 87 88 101
b 139 5 20 35 47 48 60 63 71 73 77 86 88 90 103
b 140 5 20 33 35 47 48 60 71 73 86
b 141 20 33 34 35 48
b 142 5 20 33 47 58 60 71 73 86
b 143 58 71 72 73 86
b 144 5 20 33 45 47 58 60 71 73
b 145 45 58 59 60 73
b 146 5 20 32 33 45 47 58 60 71
b 147 32 45 46 47 60
b 148 5 18 20 32 33 45 58 71
b 149 5 18 32 43 45 58 71
b 150 43 57 58 71
b 151 5 18 30 32 43 45 58
b 152 5 17 18 30 32 43 45
b 153 17 30 31 32 45
b 154 3 5 17 18 30 43
b 155 3 4 5 18
b 156 3 17 29 30 43
b 157 3 16 17 29 30
b 158 30 43 44 45 58
b 159 5 18 19 20 33
b 160 47 48 60 63 73 75 77 88 90 103
b 161 60 73 74 75 88
b 162 75 88 89 90 103
b 163 47 48 60 62 63 75 77 90
b 164 47 60 61 62 75
b 165 62 75 76 77 90
b 166 114 127 128 129 142
b 167 127 142 155 156 171 186
b 168 155 156 171 185 186
b 169 155 156 170 171 185
b 170 127 141 142 155
b 171 143 156 157 158 171
b 172 182 195 196
b 173 169 183 184
b 174 13 14 28
1 2
2 4
3 174
3 5
4 157
5 88
6 173
6 8
7 172
7 9
8 169
9 116
10 11
11 14
11 12
11 13
14 101
14 15
15 16
16 99
16 17
17 18
18 98
18 19
19 96
19 20
20 89
20 21
21 22
22 23
23 24
24 25
25 26
26 28
26 27
28 29
29 86
29 30
30 31
31 32
32 33
33 34
34 85
34 35
35 84
35 36
36 37
37 38
38 39
39 40
40 41
41 42
42 43
43 83
43 44
44 82
44 45
45 81
45 46
46 47
47 49
47 48
49 80
49 50
50 79
50 51
51 52
52 78
52 53
53 77
53 54
54 76
54 55
55 56
56 75
56 57
57 74
57 58
58 73
58 59
59 72
59 60
60 71
60 61
61 70
61 62
62 64
62 63
64 65
65 66
66 68
66 67
68 69
69 126
86 87
87 88
89 94
89 95
89 90
90 92
90 93
90 91
96 97
99 100
101 102
101 119
102 103
102 104
104 105
104 118
105 106
106 107
106 108
108 109
108 110
110 112
110 111
112 113
113 114
113 115
115 117
115 116
120 166
120 128
120 121
121 167
121 122
122 123
123 171
123 124
124 125
125 126
126 127
128 129
129 130
130 131
130 135
131 134
131 133
131 132
135 137
135 136
137 139
137 138
139 160
139 140
140 141
140 142
142 144
142 143
144 145
144 146
146 148
146 147
148 159
148 149
149 150
149 151
151 158
151 152
152 153
152 154
154 155
154 156
156 157
160 161
160 162
160 163
163 164
163 165
167 170
167 168
168 169
